54041
39, 16, 34, 28, 8, 55, 12, 2, 45, 40, 43, 3, 6, 26, 54, 47, 30, 4, 18, 9, 14, 11, 25, 31, 27, 1, 33, 42, 52, 15, 36, 46, 22, 10, 53, 23, 21, 29, 17, 48, 49, 19, 32, 41, 13, 51, 37, 5, 35, 24, 44, 38, 50, 20, 7
